param set_len = 36;
param target_sum = 11027283491;
param values := [1] 265329599 [2] 150623990 [3] 734903392 [4] 260622610 [5] 285954566 [6] 878496462 [7] 270797405 [8] 471102645 [9] 487485206 [10] 693638918 [11] 1007426426 [12] 658249963 [13] 366470491 [14] 589845265 [15] 494405403 [16] 1024512011 [17] 728740718 [18] 824148346 [19] 887383386 [20] 674150743 [21] 1059552238 [22] 934544375 [23] 218876585 [24] 1060310722 [25] 128448077 [26] 227914818 [27] 306671870 [28] 953951998 [29] 447255556 [30] 713941928 [31] 749563740 [32] 214376554 [33] 770214727 [34] 658177257 [35] 251842455 [36] 238235345 ;
